RAW/CMTQ/fspd-mid/CMT7Q.vrp_seed-2.out
900.6920473	34.862	160.018
