RAW/CMTQ/fspd-mid/CMT7Q.vrp_seed-2.sol
Route #1: 63 23 56 41 43 33 6
Route #2: 68 62 22 64 42 1 73
Route #3: 75 4 52 46 34 67
Route #4: 13 54 19 59 14 7
Route #5: 30 74 21 69 61 28 2
Route #6: 26 58 10 31 39 72 12
Route #7: 37 20 70 60 71 36
Route #8: 32 50 18 55 25 9
Route #9: 17 40 44 3 24 49 16 51
Route #10: 45 29 48 47 5 15 57 27
Route #11: 38 65 66 11 53 35 8
Cost 900.692047